WARNING: Method definition require(Symbol) in module Base at loading.jl:345 overwritten in module ConicBenchmarkUtilities at /home/ubuntu/.julia/v0.5/Requires/src/require.jl:12.
Tried aggregator 2 times.
MIQCP Presolve eliminated 872 rows and 827 columns.
Aggregator did 208 substitutions.
Reduced MIQCP has 119 rows, 244 columns, and 396 nonzeros.
Reduced MIQCP has 46 binaries, 0 generals, 0 SOSs, and 0 indicators.
Reduced MIQCP has 10 quadratic constraints.
Presolve time = 0.00 sec. (1.08 ticks)
Probing time = 0.00 sec. (0.10 ticks)
MIP emphasis: balance optimality and feasibility.
MIP search method: dynamic search.
Parallel mode: none, using 1 thread.
Root relaxation solution time = 0.00 sec. (0.16 ticks)

        Nodes                                         Cuts/
   Node  Left     Objective  IInf  Best Integer    Best Bound    ItCnt     Gap

      0     0   -24898.2592     0                 -26360.0000        9         
      0     0   -21340.3848     7                    Cone: 10       27         
      0     0   -20769.5372     9                    Cone: 19       43         
      0     0   -20632.9490    12                    Cone: 28       52         
      0     0   -20559.1382    15                    Cone: 36       63         
      0     0   -20510.3527    14                    Cone: 44       74         
      0     0   -20502.5751    14                    Cone: 52       82         
      0     0   -20493.4929    16                   Cone: 132      172         
      0     0   -20493.4923    15                   Cone: 142      178         
      0     0   -20493.4922    15                   Cone: 146      179         
      0     0   -20493.4921    15                   Cone: 149      181         
      0     0   -20493.4921    15                   Cone: 151      182         
      0     0   -20493.4921    15                 -20493.4921      182         
*     0+    0                       -17073.0000   -20493.4921            20.03%
*     0+    0                       -18373.0000   -20493.4921            11.54%
      0     0   -20011.3626    15   -18373.0000      Cuts: 10      221    8.92%
      0     0   -19727.5667    17   -18373.0000       Cuts: 8      249    7.37%
      0     0   -19646.6075    17   -18373.0000      Cuts: 11      262    6.93%
      0     0   -19534.9233    19   -18373.0000       Cuts: 6      276    6.32%
      0     0   -19338.7019    18   -18373.0000      Cuts: 13      295    5.26%
*     0+    0                       -18422.0000   -19338.7019             4.98%
      0     0   -19306.8506    18   -18422.0000       Cuts: 7      311    4.80%
      0     0   -19234.7406    17   -18422.0000       Cuts: 4      320    4.41%
      0     0   -19226.5741    21   -18422.0000       Cuts: 7      324    4.37%
      0     0   -19212.4986    16   -18422.0000       Cuts: 5      329    4.29%
      0     0   -19192.9077    15   -18422.0000       Cuts: 5      343    4.18%
      0     0   -19176.2123    11   -18422.0000       Cuts: 4      350    4.09%
      0     0   -19162.7949    17   -18422.0000       Cuts: 2      427    4.02%
      0     0   -19153.0086    14   -18422.0000       Cuts: 8      454    3.97%
      0     0   -19149.5415    17   -18422.0000       Cuts: 3      469    3.95%
      0     0   -19147.5058    19   -18422.0000    MIRcuts: 1      476    3.94%
      0     0   -19135.0487    19   -18422.0000       Cuts: 4      524    3.87%
      0     0   -19135.0487    19   -18422.0000    MIRcuts: 1      525    3.87%
      0     2   -19135.0487    19   -18422.0000   -19132.2050      525    3.86%
Elapsed time = 0.43 sec. (289.05 ticks, tree = 0.01 MB, solutions = 3)
*   250+   64                       -18496.0000   -18738.6601             1.31%
*   324    19      integral     0   -18596.0000   -18649.4185     3786    0.29%
#SOLVERNAME# CPLEX_MISOCP
#SOLVER# CPLEX.CplexSolver(Any[(:CPX_PARAM_THREADS,1),(:CPX_PARAM_TILIM,60.0),(:CPX_PARAM_SCRIND,1),(:CPX_PARAM_EPGAP,1.0e-5)])
#INSTANCE# ck_n50_m10_o3_5.cbf.gz
#TIMELIMIT# 60.0
#STATUS# Optimal
#OBJVAL# 18596.0
#OBJBOUND# 18596.0
#TIMESOLVER# 0.5308449268341064
#TIMEALL# 1.9385788440704346
#SOLUTION# [1.0,0.0,1.0,1.0,1.0,0.0,1.0,-0.0,1.0,1.0,-0.0,1.0,1.0,0.0,1.0,0.0,0.0,1.0,-0.0,0.0,1.0,0.0,1.0,0.0,-0.0,1.0,1.0,0.0,1.0,1.0,-2.55351295663786e-14,1.0,1.0000000000000255,1.0,1.0,0.0,1.0000000000000255,1.0,0.0,1.0,1.0,1.0,-0.0,1.0,-0.0,1.0,1.0,1.0,0.0,1.0,0.0,0.0,0.0,0.0,40.0,0.0,0.0,82.0,0.0,0.0,0.0,0.0,0.0,0.0,0.0,0.0,0.0,0.0,0.0,0.0,0.0,0.0,0.0,0.0,0.0,0.0,0.0,0.0,0.0,0.0,0.0,0.0,0.0,0.0,0.0,1.0,0.0,0.0,0.0,0.0,128.0,0.0,155.0,0.0,0.0,0.0,0.0,0.0,0.0,0.0,0.0,280.0,118.0,0.0,0.0,0.0,3.0,0.0,0.0,0.0,0.0,3.0,0.0,0.0,0.0,0.0,0.0,0.0,0.0,0.0,0.0,0.0,0.0,0.0,0.0,0.0,0.0,0.0,60.0,0.0,93.0,62.0,0.0,0.0,0.0,40.0,0.0,0.0,0.0,0.0,0.0,0.0,0.0,0.0,0.0,0.0,0.0,0.0,0.0,0.0,0.0,0.0,192.0,0.0,0.0,0.0,0.0,86.0,0.0,0.0,0.0,0.0,0.0,0.0,0.0,0.0,0.0,0.0,0.0,0.0,0.0,0.0,0.0,0.0,0.0,0.0,0.0,0.0,0.0,0.0,0.0,0.0,0.0,-1.3533618670180658e-12,0.0,0.0,0.0,0.0,0.0,0.0,0.0,0.0,0.0,0.0,0.0,0.0,0.0,0.0,26.0,0.0,0.0,0.0,0.0,214.00000000000045,68.0,0.0,0.0,0.0,0.0,0.0,0.0,0.0,0.0,0.0,0.0,0.0,0.0,0.0,54.0,0.0,0.0,0.0,0.0,0.0,0.0,0.0,0.0,0.0,0.0,0.0,0.0,0.0,0.0,16.0,0.0,0.0,0.0,0.0,0.0,0.0,0.0,0.0,0.0,0.0,0.0,0.0,0.0,0.0,0.0,0.0,0.0,0.0,0.0,38.0,163.0,0.0,0.0,0.0,0.0,0.0,0.0,0.0,0.0,0.0,0.0,0.0,0.0,0.0,0.0,30.0,0.0,0.0,0.0,0.0,0.0,0.0,0.0,0.0,0.0,0.0,0.0,0.0,0.0,0.0,0.0,0.0,0.0,0.0,0.0,3.0,0.0,0.0,0.0,0.0,0.0,0.0,0.0,0.0,0.0,0.0,0.0,0.0,0.0,0.0,0.0,121.0,0.0,0.0,0.0,0.0,0.0,0.0,0.0,0.0,0.0,0.0,0.0,0.0,0.0,0.0,0.0,0.0,0.0,0.0,0.0,0.0,8.0,0.0,0.0,0.0,0.0,0.0,27.0,0.0,0.0,0.0,-6.639133687258436e-13,74.0,0.0,0.0,0.0,0.0,0.0,0.0,0.0,0.0,0.0,0.0,0.0,0.0,0.0,0.0,0.0,9.0,0.0,0.0,335.0000000000024,0.0,0.0,26.0,0.0,0.0,0.0,0.0,0.0,5.0,0.0,0.0,0.0,243.0,0.0,0.0,0.0,0.0,0.0,0.0,0.0,0.0,0.0,0.0,0.0,0.0,0.0,0.0,0.0,0.0,0.0,0.0,0.0,0.0,0.0,27.0,0.0,0.0,0.0,0.0,0.0,119.0,0.0,0.0,0.0,0.0,0.0,0.0,0.0,0.0,0.0,280.0,0.0,0.0,0.0,0.0,0.0,0.0,0.0,0.0,32.0,0.0,0.0,0.0,0.0,0.0,0.0,0.0,0.0,0.0,0.0,0.0,0.0,0.0,0.0,0.0,0.0,0.0,0.0,0.0,0.0,0.0,0.0,0.0,0.0,0.0,0.0,0.0,0.0,0.0,0.0,80.0,0.0,0.0,0.0,0.0,0.0,0.0,0.0,0.0,0.0,0.0,160.0,0.0,0.0,28.0,0.0,0.0,0.0,51.0,0.0,0.0,0.0,0.0,0.0,0.0,0.0,0.0,0.0,0.0,0.0,0.0,0.0,0.0,0.0,50.0,0.0,0.0,0.0,0.0,0.0,0.0,0.0,-3.140820936664568e-12,0.0,8.000000000000204,0.0,61.0,0.0,2.000000000000051,0.0,0.0,0.0,0.0,0.0,0.0,0.0,0.0,0.0,80.0,0.0,0.0,87.0,192.0000000000014,0.0,0.0,0.0,95.0,0.0,0.0,0.0,0.0,0.0,0.0,0.0,0.0,0.0,0.0,0.0,0.0,0.0,0.0,0.0,0.0,0.0,0.0,26.0,0.0,0.0,96.0,100.0,0.0,0.0,0.0,-9.192646643896296e-13,0.0,0.0,0.0,0.0,0.0,0.0,0.0,0.0,0.0,0.0,0.0,0.0,0.0,0.0,0.0,0.0,0.0,0.0,0.0,176.0000000000005,395.97979746446657,197.9898987322333,-0.0,0.0,-0.0,56.5685424949238,-0.0,-0.0,115.96551211459378,-0.0,-0.0,-0.0,-0.0,-0.0,-0.0,-0.0,-0.0,-0.0,-0.0,-0.0,0.0,-0.0,-0.0,-0.0,-0.0,-0.0,0.0,-0.0,-0.0,0.0,-0.0,-0.0,-0.0,-0.0,-0.0,-0.0,1.414213562373095,-0.0,-0.0,-0.0,0.0,181.01933598375615,-0.0,219.2031021678297,-0.0,-0.0,-0.0,-0.0,-0.0,-0.0,-0.0,-0.0,271.5290039756342,135.76450198781714,166.8772003600252,-0.0,-0.0,-0.0,4.242640687119285,0.0,-0.0,-0.0,-0.0,4.242640687119285,-0.0,-0.0,-0.0,0.0,-0.0,-0.0,-0.0,-0.0,-0.0,0.0,-0.0,-0.0,-0.0,-0.0,-0.0,-0.0,84.85281374238569,0.0,131.52186130069782,87.68124086713189,-0.0,-0.0,-0.0,56.5685424949238,-0.0,-0.0,-0.0,-0.0,-0.0,-0.0,-0.0,-0.0,-0.0,-0.0,-0.0,-0.0,-0.0,-0.0,-0.0,-0.0,302.64170234784297,151.3208511739215,-0.0,-0.0,-0.0,-0.0,121.62236636408616,-0.0,-0.0,-0.0,-0.0,-0.0,-0.0,-0.0,-0.0,-0.0,-0.0,-0.0,-0.0,-0.0,-0.0,0.0,-0.0,0.0,-0.0,-0.0,0.0,-0.0,-0.0,0.0,-0.0,-0.0,-1.9139427071355215e-12,-0.0,-0.0,-0.0,-0.0,-0.0,-0.0,-0.0,-0.0,-0.0,-0.0,-0.0,-0.0,-0.0,-0.0,36.76955262170047,-0.0,-0.0,-0.0,-0.0,230.51681066681448,115.25840533340725,96.16652224137046,-0.0,-0.0,-0.0,-0.0,-0.0,-0.0,-0.0,-0.0,-0.0,0.0,-0.0,-0.0,-0.0,76.36753236814712,-0.0,-0.0,-0.0,-0.0,-0.0,-0.0,-0.0,-0.0,0.0,-0.0,-0.0,-0.0,-0.0,-0.0,22.62741699796952,-0.0,-0.0,-0.0,-0.0,-0.0,0.0,-0.0,-0.0,-0.0,-0.0,-0.0,-0.0,-0.0,-0.0,0.0,-0.0,-0.0,-0.0,-0.0,53.740115370177605,171.1198410471445,85.55992052357226,-0.0,-0.0,-0.0,-0.0,-0.0,-0.0,-0.0,-0.0,-0.0,-0.0,-0.0,-0.0,-0.0,-0.0,42.426406871192846,0.0,-0.0,-0.0,-0.0,-0.0,-0.0,-0.0,-0.0,-0.0,0.0,-0.0,-0.0,-0.0,-0.0,-0.0,-0.0,-0.0,-0.0,-0.0,4.242640687119285,-0.0,-0.0,-0.0,-0.0,-0.0,-0.0,-0.0,-0.0,-0.0,-0.0,-0.0,-0.0,-0.0,-0.0,-0.0,473.76154339499016,236.88077169749513,-0.0,-0.0,-0.0,-0.0,-0.0,-0.0,-0.0,-0.0,-0.0,-0.0,-0.0,-0.0,-0.0,0.0,-0.0,-0.0,-0.0,-0.0,-0.0,0.0,11.31370849898476,-0.0,-0.0,-0.0,-0.0,-0.0,38.18376618407356,-0.0,-0.0,-0.0,-9.389152902928975e-13,104.65180361560903,-0.0,-0.0,-0.0,-0.0,-0.0,-0.0,-0.0,-0.0,-0.0,-0.0,0.0,-0.0,-0.0,-0.0,-0.0,12.727922061357855,0.0,-0.0,395.97979746446657,197.9898987322333,-0.0,0.0,36.76955262170047,-0.0,-0.0,-0.0,-0.0,-0.0,7.071067811865475,-0.0,-0.0,-0.0,343.6538956566621,-0.0,-0.0,0.0,-0.0,-0.0,-0.0,-0.0,-0.0,-0.0,-0.0,-0.0,0.0,-0.0,-0.0,-0.0,-0.0,-0.0,-0.0,-0.0,-0.0,-0.0,38.18376618407356,0.0,-0.0,-0.0,-0.0,-0.0,168.2914139223983,-0.0,0.0,-0.0,0.0,-0.0,-0.0,-0.0,-0.0,-0.0,226.2741699796952,113.13708498984761,-0.0,0.0,-0.0,-0.0,-0.0,-0.0,-0.0,-0.0,45.25483399593904,-0.0,-0.0,-0.0,-0.0,-0.0,-0.0,-0.0,0.0,-0.0,-0.0,-0.0,-0.0,-0.0,-0.0,-0.0,-0.0,-0.0,-0.0,-0.0,-0.0,-0.0,-0.0,-0.0,-0.0,-0.0,-0.0,0.0,-0.0,-0.0,-0.0,113.1370849898476,-0.0,-0.0,0.0,-0.0,-0.0,-0.0,-0.0,-0.0,-0.0,-0.0,271.5290039756362,135.7645019878181,-0.0,-0.0,39.597979746446654,-0.0,-0.0,0.0,72.12489168102785,-0.0,-0.0,-0.0,-0.0,-0.0,-0.0,-0.0,-0.0,-0.0,-0.0,-0.0,-0.0,0.0,-0.0,0.0,70.71067811865474,-0.0,0.0,-0.0,-0.0,-0.0,-0.0,-0.0,-4.441791565616399e-12,-0.0,11.313708498985049,-0.0,86.26702730475878,-0.0,2.8284271247462622,-0.0,-0.0,-0.0,-0.0,-0.0,-0.0,-0.0,-0.0,-0.0,113.1370849898476,-0.0,0.0,123.03657992645925,248.90158697766543,124.45079348883273,-0.0,-0.0,-0.0,134.350288425444,-0.0,-0.0,-0.0,0.0,-0.0,-0.0,-0.0,-0.0,-0.0,-0.0,-0.0,-0.0,-0.0,-0.0,-0.0,-0.0,-0.0,0.0,36.76955262170047,0.0,0.0,135.7645019878171,141.42135623730948,-0.0,-0.0,-0.0,-1.3000365557901657e-12,-0.0,-0.0,-0.0,-0.0,-0.0,-0.0,-0.0,-0.0,-0.0,-0.0,-0.0,-0.0,-0.0,-0.0,-0.0,-0.0,-0.0,-0.0,-0.0]

Cover cuts applied:  4
Flow cuts applied:  6
Mixed integer rounding cuts applied:  16
Zero-half cuts applied:  9
Lift and project cuts applied:  9
Cone linearizations applied:  129

Root node processing (before b&c):
  Real time             =    0.43 sec. (289.10 ticks)
Sequential b&c:
  Real time             =    0.10 sec. (83.97 ticks)
                          ------------
Total (root+branch&cut) =    0.53 sec. (373.07 ticks)
